NAME : amz0225.120978_119478.tour
COMMENT : Cost = 120978_119478
COMMENT : Found by LKH-AMZ [Keld Helsgaun] Sun May 11 12:20:49 2025
COMMENT : TW viol.: 0 #: 0
TYPE : TOUR
DIMENSION : 142
TOUR_SECTION
101
142
3
57
124
18
20
23
63
117
54
115
36
127
31
30
46
68
90
1
107
109
25
103
10
77
60
136
6
52
100
27
133
11
84
2
106
34
19
102
24
81
37
72
135
73
26
29
16
74
78
71
99
21
42
131
47
41
119
94
56
104
108
112
85
65
86
12
55
129
137
121
9
38
70
83
88
15
128
126
140
14
43
4
50
67
97
64
89
122
49
95
91
80
35
8
93
33
111
61
123
7
113
110
5
44
53
114
92
139
138
76
98
17
116
69
58
51
118
87
62
48
134
45
28
22
82
59
130
105
40
141
125
132
13
96
66
79
32
75
39
120
-1
EOF
